Total weight: 1702.1506035336727
Route 1: 0 41 75 72 0 
Route 2: 0 5 99 96 54 4 25 0 
Route 3: 0 52 18 6 94 0 
Route 4: 0 28 12 68 76 50 1 0 
Route 5: 0 36 47 19 46 17 0 
Route 6: 0 2 42 15 57 58 0 
Route 7: 0 31 88 90 10 70 0 
Route 8: 0 39 23 67 55 24 80 0 
Route 9: 0 33 29 78 34 35 79 0 
Route 10: 0 30 51 9 20 0 
Route 11: 0 92 14 44 38 43 87 0 
Route 12: 0 62 11 49 48 0 
Route 13: 0 7 64 63 0 
Route 14: 0 21 73 22 56 74 0 
Route 15: 0 65 71 66 32 0 
Route 16: 0 27 69 81 3 77 0 
Route 17: 0 83 82 8 84 60 89 0 
Route 18: 0 45 61 85 37 93 0 
Route 19: 0 59 98 16 86 91 100 0 
Route 20: 0 95 97 13 0 
Route 21: 0 40 53 26 0 
